Route #1: 64 116 96 127 31 98 25 60
Route #2: 72 134 118 15 67 51 80
Route #3: 143 112 85 54 63 110 78 133 46
Route #4: 40 22 10 103 70 47 115 108 24 140 35
Route #5: 86 13 37 58 93 139 34 120 41 76
Route #6: 104 83 56 99 61 136 5 32 57 33 91
Route #7: 97 95 132 102 43 16 38 126 84
Route #8: 30 29 42 129 48 137 17 105 18
Route #9: 138 66 121 55 100 101 65 6
Route #10: 94 45 75 142
Route #11:
Route #12:
Route #13: 90 14 12 4 128 28 27 77 69
Route #14: 62 123 68 141 88 130 119 113 107 124
Route #15: 9 19 52 26 39 111 109 125 7 82 144 21
Route #16: 131 81 106 59 135 23 92
Route #17: 49 53 87 50 122 73 71 117 114 79 36 44
Route #18: 11 20 8 3 1 2 74 89
Cost: 3898289
